SystemLabel  MgO-NEB-110
NumberOfSpecies  3 
NumberOfAtoms  19 
%block ChemicalSpeciesLabel
1  12  Mg
2  8  O
3  -8  VO
%endblock ChemicalSpeciesLabel
LatticeConstant  1.0  Ang
%block LatticeVectors
  9.967821  0.0  0.0
  -4.9839105  8.63238621  0.0
  0.0  0.0  35.0
%endblock LatticeVectors 
AtomicCoordinatesFormat  Ang 
%block AtomicCoordinatesAndAtomicSpecies 
  1.627402225247502    0.9779936702687251    17.499987443131864    1    1   #Mg 
  -0.064290706466052    1.928034258205143    17.499999364960495    2    2   #O 
  5.05271125806579    1.033921116844748    17.499973271242627    1    3   #Mg 
  8.171211958516574    1.034742368327305    17.500000540791792    1    4   #Mg 
  -0.033867131675333    3.851039952170785    17.499999421582437    1    5   #Mg 
  -1.709385324933561    4.792342270469293    17.500000312716505    2    6   #O 
  3.3036273407682604    3.839132547844451    17.50000267231675    1    7   #Mg 
  1.636760562268579    4.80925485946609    17.499999478204376    2    8   #O 
  6.613952299138757    3.742369751510962    17.500007253402035    1    9   #Mg 
  4.975598572781013    4.796405048053872    17.499999690933528    2    10   #O 
  -1.693344810107577    6.733483566676229    17.50000012168361    1    11   #Mg 
  -3.3556823393804702    7.691202970620752    17.499999243249786    2    12   #O 
  1.630916149972868    6.735335727452035    17.499999992035242    1    13   #Mg 
  -0.02090626982378    7.71533247554355    17.499998546852854    2    14   #O 
  4.950021740716833    6.7349407396848715    17.499999757080655    1    15   #Mg 
  3.28095219627835    7.721299206573634    17.500000043894588    2    16   #O 
  3.322207167521506    1.918091197003553    17.50010071188118    2    17   #O 
  6.645214  1.91830804  17.5  3  18   #Constrained Ghost 
  3.322607  1.91830804  17.5  3  19   #Constrained Ghost 
%endblock AtomicCoordinatesAndAtomicSpecies 
%block Geometry.Constraints
atom  18
atom  19
%endblock Geometry.Constraints
%block PAO.Basis
 Mg   4      0.04671
 n=2   0   1   E    22.36384     0.28509
 3.47661
 1.00000
 n=3   0   2   E    10.10988     0.99154
 3.46833     1.25785
 1.00000     1.00000
 n=2   1   2   E     2.89494     1.12196
 3.93864     1.05729
 1.00000     1.00000
 n=3   1   1   E    77.17311     1.04265
 4.39039
 1.00000
 O    3     -0.49820
 n=2   0   2   E     3.77977     0.09673
 4.74747     2.11057
 1.00000     1.00000
 n=3   0   1   E     5.24950     0.27857
 4.37690
 1.00000
 n=2   1   2   E     2.98223     1.27650
 7.24547     3.33329
 1.00000     1.00000
 VO  3     -1.49097
 n=2   0   2   E    16.28001     3.94212
 5.71993     3.12860
 1.00000     1.00000
 n=2   1   2   E     5.45115     2.41457
 5.43517     3.35834
 1.00000     1.00000
 n=3   2   1   E     1.93336     0.88932
 4.35775
 1.00000
%endblock PAO.Basis
XC.Functional  GGA
XC.Authors  PBE
%block kgrid_Monkhorst_Pack
  3  0  0  0.5
  0  3  0  0.5
  0  0   1  0.5
%endblock kgrid_Monkhorst_Pack
MeshCutoff  800  Ry
DM.NumberPulay  3
DM.UseSaveDM  True
DM.History.Depth  0
DM.Tolerance  1.d-4
SCF.Mixer.weight  0.1
SCF.Mix   density
SCF.Mixer.kick  35
MaxSCFIterations   500
MD.VariableCell  F
MD.MaxCGDispl  0.3 Bohr
MD.MaxForceTol   0.04000 eV/Ang
MD.TypeOfRun  LUA
Lua.Script neb_with_restart.lua
MD.UseSaveXV  T
WriteMDXmol T
